w = 30;
n = 20;
measures = [|3, 3,
|3, 4,
|3, 5,
|3, 6,
|3, 7,
|3, 8,
|3, 9,
|3, 10,
|3, 11,
|3, 13,
|3, 14,
|3, 16,
|3, 19,
|3, 25,
|4, 3,
|4, 4,
|4, 6,
|4, 8,
|4, 9,
|11, 30,
|];
initial_x = [0, 3, 6, 9, 12, 15, 18, 21, 24, 27, 0, 3, 6, 9, 12, 16, 20, 24, 0, 4];
initial_y = [0, 0, 0, 0, 0, 0, 0, 0, 0, 0, 13, 13, 13, 13, 13, 13, 13, 13, 38, 38];